c --- [ banner ] -------------------------------------------------------------
c 
c CaDiCaL Radically Simplified CDCL SAT Solver
c Copyright (c) 2016-2021 A. Biere, M. Fleury, N. Froleyks
c 
c Version 1.5.2 ca9bff05c11bde5eae4912f9932871d1527e61d8
c g++ (GCC) 9.3.0 -Wall -Wextra -O3 -DNDEBUG
c Sun May 1 02:23:23 EDT 2022 Linux gra-login1 3.10.0-1160.59.1.el7.x86_64 x86_64
c 
c --- [ limit ] --------------------------------------------------------------
c 
c setting conflict limit to 200000 conflicts (due to '200000')
c 
c --- [ parsing input ] ------------------------------------------------------
c 
c reading DIMACS file from '26.cubes154.adj'
c opening file to read '26.cubes154.adj'
c found 'p cnf 5320 924209' header
c parsed 924209 clauses in 8.83 seconds process time
c closing file '26.cubes154.adj'
c after reading 686668111 bytes 654.9 MB
c 
c --- [ options ] ------------------------------------------------------------
c 
c all options are set to their default value
c 
c --- [ solving ] ------------------------------------------------------------
c 
c time measured in process time since initialization
c 
c  seconds   reductions  redundant  irredundant
c          MB    restarts       trail      variables
c           level   conflicts       glue        remaining
c 
c *  8.84 685  0 0   0    0    0  0% 0 923580 4121 77%
c {  9.51 716  0 0   0    0    0  0% 0 923580 4121 77%
c i  9.76 717 15 0   0    2    1 34% 4 923580 4109 77%
c i 11.27 750 26 0   5  108   66 40% 9 923580 4093 77%
c i 12.08 753 24 0  12  224  114 41% 9 923580 4092 77%
c i 12.11 754 26 0  12  226  115 41% 9 923580 4091 77%
c i 12.52 756 43 0  19  261  140 41% 15 923580 4089 77%
c i 12.53 756 42 0  20  264  142 41% 15 923580 4082 77%
c - 14.69 723 45 1  30  301  165 42% 16 293256 4078 77%
c i 15.52 708 52 1  55  408  257 44% 23 293256 4077 77%
c i 15.75 708 53 1  64  448  285 44% 23 293256 4076 77%
c i 15.75 708 53 1  65  450  284 44% 23 293256 4075 77%
c i 15.75 708 53 1  65  451  284 44% 23 293256 4074 77%
c i 15.76 708 53 1  66  455  287 44% 23 293256 4073 77%
c i 15.87 708 53 1  71  471  301 44% 23 293256 4072 77%
c i 16.19 708 56 1  77  500  328 44% 25 293256 4071 77%
c i 17.02 708 54 1  87  644  430 45% 23 293256 4070 77%
c i 17.40 708 54 1  93  710  477 45% 23 293256 4069 76%
c i 17.50 709 54 1  93  737  495 46% 24 293256 4068 76%
c i 17.66 709 54 1 100  794  543 46% 24 293256 4067 76%
c 
c  seconds   reductions  redundant   irredundant
c          MB    restarts       trail       variables
c           level   conflicts       glue         remaining
c 
c i 17.66 709 53 1 100  796  544 46% 24 293256 4066 76%
c i 17.66 709 53 1 101  798  544 46% 24 293256 4065 76%
c i 17.75 709 50 1 101  876  598 47% 23 293256 4064 76%
c i 17.76 709 50 1 101  881  602 47% 23 293256 4063 76%
c i 17.85 709 47 1 101  961  652 48% 22 293256 4062 76%
c } 17.88 709 46 1 101 1002  685 48% 22 293256 4062 76%
c [ 17.88 709  0 1 101 1002  685  0% 0 293256 4062 76%
c O 17.90 709  2 1 101 1003  686 36% 2 293256 4062 76%
c i 17.91 709  2 1 101 1006  687 33% 2 293256 4045 76%
c i 17.94 709  3 1 101 1025  692 37% 2 293256 4006 75%
c i 17.95 709  2 1 101 1031  696 35% 2 293256 3987 75%
c i 18.12 709 18 1 101 1061  724 44% 12 293256 3986 75%
c i 18.15 709 23 1 101 1075  736 46% 16 293256 3985 75%
c i 18.20 709 25 1 101 1101  752 48% 18 293256 3984 75%
c i 18.22 709 25 1 101 1116  766 49% 18 293256 3983 75%
c i 18.28 709 25 1 101 1136  780 50% 18 293256 3982 75%
c i 18.36 709 26 1 101 1170  804 51% 19 293256 3981 75%
c - 18.93 828 27 2 101 1182  730 51% 20 291978 3981 75%
c i 19.21 796 31 2 101 1334  850 53% 24 291978 3980 75%
c i 19.23 796 30 2 101 1364  869 53% 24 291978 3979 75%
c 
c  seconds   reductions  redundant   irredundant
c          MB    restarts       trail       variables
c           level   conflicts       glue         remaining
c 
c i 19.26 796 29 2 101 1435  919 54% 23 291978 3978 75%
c i 19.27 796 29 2 101 1446  928 54% 23 291978 3977 75%
c i 19.30 796 29 2 101 1472  948 54% 22 291978 3976 75%
c i 19.34 796 27 2 101 1536  983 54% 22 291978 3975 75%
c i 19.37 796 27 2 101 1576 1004 54% 21 291978 3974 75%
c i 19.41 796 27 2 101 1674 1052 55% 22 291978 3973 75%
c i 19.42 796 27 2 101 1679 1056 55% 22 291978 3972 75%
c i 19.48 796 26 2 101 1792 1132 55% 21 291978 3971 75%
c i 19.48 796 26 2 101 1793 1132 55% 21 291978 3970 75%
c i 19.85 796 24 2 102 2369 1522 55% 20 291978 3969 75%
c - 20.24 793 23 3 102 2503 1238 55% 19 291942 3969 75%
c ] 20.82 793 22 3 102 3003 1461 37% 18 291942 3969 75%
c { 20.82 793 46 3 102 3003 1461 65% 22 291942 3969 75%
c F 20.87 793 46 3 102 3004 1462 65% 22 291942 3969 75%
c i 21.47 793 45 3 123 3218 1636 60% 22 291942 3968 75%
c i 21.50 793 43 3 123 3284 1690 59% 22 291942 3967 75%
c i 21.80 793 39 3 123 3604 1883 55% 20 291942 3966 75%
c i 22.36 793 40 3 151 3744 1997 53% 21 291942 3965 75%
c i 22.68 793 40 3 175 3935 2119 51% 21 291942 3964 75%
c i 22.69 793 40 3 175 3955 2136 51% 20 291942 3963 74%
c 
c  seconds   reductions  redundant   irredundant
c          MB    restarts       trail       variables
c           level   conflicts       glue         remaining
c 
c i 22.72 793 40 3 175 4032 2187 50% 20 291942 3962 74%
c i 22.76 793 40 3 180 4088 2233 50% 21 291942 3961 74%
c - 23.38 791 39 4 187 4262 1687 49% 20 291918 3961 74%
c i 23.56 791 37 4 187 4518 1819 48% 20 291918 3960 74%
c i 23.80 791 38 4 204 4636 1915 47% 20 291918 3959 74%
c d 24.64 791 36 4 242 5001 2031 44% 20 291879 3947 74%
c 2 24.72 791 36 4 242 5001 4096 44% 20 291770 3893 73%
c p 27.62 791 36 4 242 5001 11687 44% 20 291770 3814 72%
c d 27.97 791 36 4 242 5001 10721 44% 20 177248 3804 72%
c d 28.10 791 36 4 242 5001 10721 44% 20 177244 3802 71%
c # 28.97 791 34 4 242 6007 11411 43% 19 177244 3802 71%
c - 29.47 734 33 5 242 6461 2371 42% 19 177244 3802 71%
c } 29.65 734 32 5 253 7004 2711 42% 19 177244 3802 71%
c [ 29.65 734 22 5 253 7004 2711 37% 18 177244 3802 71%
c - 30.31 734 22 6 254 8710 2518 39% 19 177244 3802 71%
c I 30.79 734 23 6 255 10008 3247 39% 20 177244 3802 71%
c - 31.68 734 30 7 257 11332 3121 39% 23 177244 3802 71%
c - 33.32 734 36 8 258 14328 3881 38% 28 177244 3802 71%
c 2 33.78 734 36 8 258 15002 6303 38% 28 177236 3802 71%
c p 34.71 734 36 8 258 15002 13110 38% 28 177236 3801 71%
c 
c  seconds   reductions    redundant   irredundant
c          MB    restarts         trail       variables
c           level    conflicts        glue         remaining
c 
c ] 34.81 734 36 8 258 15009 13115 38% 28 177236 3801 71%
c { 34.81 734 32 8 258 15009 13115 42% 19 177236 3801 71%
c B 34.82 734 32 8 258 15010 13116 42% 19 177236 3801 71%
c s 35.38 735 30 8 258 15617 13151 42% 18 175175 3801 71%
c v 37.00 734 30 8 258 15617 13151 42% 18 175074 3801 71%
c t 37.07 735 30 8 258 15617 13134 42% 18 175021 3787 71%
c e 37.57 735 30 8 258 15617 6779 42% 18 169751 1042 20%
c s 37.65 735 30 8 258 15617 6779 42% 18 169575 1042 20%
c - 39.06 678 26 9 258 17700 4166 61% 16 169575 1042 20%
c W 41.35 678 23 9 341 21011 6272 62% 15 169575 1042 20%
c - 42.46 678 24 10 428 21388 4413 61% 15 169575 1042 20%
c - 46.10 678 23 11 641 25444 5020 61% 15 169575 1042 20%
c } 46.14 678 23 11 641 25522 5081 61% 15 169575 1042 20%
c 1 46.14 678 23 11 641 25522 5081 61% 15 169575 1042 20%
c 
c --- [ writing output ] -----------------------------------------------------
c 
c writing simplified CNF to DIMACS file 'simp/26.cubes154.adj.simp1'
c * 46.14 678 23 11 641 25522 5081 61% 15 169575 1042 20%
c opening file to write 'simp/26.cubes154.adj.simp1'
c writing 'p cnf 5320 169575' header
c closing file 'simp/26.cubes154.adj.simp1'
c after writing 60474067 bytes 57.7 MB
c wrote 169575 clauses in 0.46 seconds process time
c 
c --- [ writing extension ] --------------------------------------------------
c 
c writing extension stack to 'simp/26.cubes154.adj.ext1'
c opening file to write 'simp/26.cubes154.adj.ext1'
c closing file 'simp/26.cubes154.adj.ext1'
c after writing 159321 bytes 0.2 MB
c wrote 7262 witnesses in 0.00 seconds process time
c 
c --- [ result ] -------------------------------------------------------------
c 
s SATISFIABLE
c 
c --- [ run-time profiling ] -------------------------------------------------
c 
c process time taken by individual solving procedures
c (percentage relative to process time for solving)
c 
c        29.57   79.25% search
c        21.63   57.98% unstable
c         8.83   23.68% parse
c         7.74   20.75% simplify
c         7.09   19.01% stable
c         3.82   10.25% probe
c         1.66    4.45% vivify
c         0.96    2.57% elim
c         0.67    1.80% lucky
c         0.19    0.51% subsume
c         0.17    0.46% walk
c         0.10    0.27% ternary
c   =================================
c        37.31   80.05% solve
c 
c last line shows process time for solving
c (percentage relative to total process time)
c 
c --- [ statistics ] ---------------------------------------------------------
c 
c chronological:              4919        19.27 %  of conflicts
c conflicts:                 25522       684.09    per second
c decisions:                 67165      1800.28    per second
c eliminated:                 2745        51.60 %  of all variables
c fixed:                      1509        28.36 %  of all variables
c learned:                   24944        97.74 %  per conflict
c learned_lits:            4294802       100.00 %  learned literals
c minimized:                     0         0.00 %  learned literals
c shrunken:                2534949        59.02 %  learned literals
c minishrunken:             394026         9.17 %  learned literals
c propagations:            4487773         0.12 M  per second
c reduced:                   11327        44.38 %  per conflict
c rephased:                      6      4253.67    interval
c restarts:                    641        39.82    interval
c stabilizing:                   2        39.21 %  of conflicts
c substituted:                  24         0.45 %  of all variables
c subsumed:                  11194         0.53 %  of all clauses
c strengthened:              11157         0.52 %  of all clauses
c ternary:                    3991         0.48 %  of resolved
c vivified:                    115         0.01 %  of all clauses
c walked:                        1     25522.00    interval
c weakened:                   5753         2.93    average size
c 
c seconds are measured in process time for solving
c 
c --- [ resources ] ----------------------------------------------------------
c 
c total process time since initialization:        46.60    seconds
c total real time since initialization:           46.78    seconds
c maximum resident set size of process:          912.33    MB
c 
c --- [ shutting down ] ------------------------------------------------------
c 
c exit 10
WARNING! DIMACS header mismatch: wrong number of variables.
============================[ Problem Statistics ]=============================
|                                                                             |
|  Number of variables:          3678                                         |
|  Number of clauses:          169579                                         |
|  Parse time:                   0.97 s                                       |
|  Simplification time:          0.02 s                                       |
|                                                                             |
============================[ Search Statistics ]====================================================
| Conflicts |          ORIGINAL         |          LEARNT          | Num Sols |      SUBGRAPHS      |
|           |    Vars  Clauses Literals |    Limit  Clauses Lit/Cl |          | Canonical Noncanon. |
=====================================================================================================
|       101 |    3594   169580 13781373 |     2000      101     82 |        0 |        24         1 |
|       251 |    3594   169580 13781373 |     2000      251    102 |        0 |        28         1 |
|       478 |    3594   169582 13781423 |     2000      478    108 |        0 |        42         3 |
|       831 |    3594   169598 13781867 |     2000      831    106 |        0 |        52        19 |
|      1338 |    3594   169599 13781927 |     2000     1338     94 |        0 |        75        20 |
|      2147 |    3594   169649 13783083 |     3600     1147     64 |        0 |       114        70 |
|      3289 |    3594   169652 13783197 |     3600     2289     86 |        0 |       115        73 |
|      5023 |    3594   169678 13783976 |     5001     2224     62 |        0 |       172        99 |
|      7734 |    3594   169827 13786885 |     5001     4935     73 |        0 |       243       248 |
|     11797 |    3594   170046 13789990 |     7556     3353     34 |        0 |       346       467 |
|     17709 |    3594   170192 13792996 |     8784     5493     47 |        0 |       411       613 |
|     26448 |    3594   170282 13794702 |     9998     9846     67 |        0 |       503       703 |
|     39487 |    3594   170347 13795980 |    12412    12299     66 |        0 |       575       768 |
|     59646 |    3594   171045 13808531 |    16018    12064     61 |        0 |       933      1466 |
|     90006 |    3594   172213 13828433 |    19613    16619     64 |        0 |      1380      2634 |
|    135606 |    3594   174024 13854330 |    24406    19412     63 |        0 |      1909      4445 |
|    204982 |    3594   177716 13910914 |    30404    21786     53 |        0 |      3019      8137 |
|    304632 |    3594   178840 13932051 |    37605    21237     36 |        0 |      3738      9261 |
|    454110 |    3583   148292 11517303 |    45391    25901     59 |        0 |      4454     10950 |
|    681968 |    3583   154467 11613283 |    55619    53587     74 |        0 |      6468     17125 |
|   1021653 |    3573   143740 11411708 |    57509    43162     76 |        0 |      8734     24285 |
=====================================================================================================
Number of solutions   : 0
Canonical subgraphs   : 11188          (59 /sec)
          order  3    : 1              (200000 /sec)
          order  4    : 1              (500000 /sec)
          order  5    : 1              (200000 /sec)
          order  6    : 1              (52632 /sec)
          order  7    : 2              (10309 /sec)
          order  8    : 7              (2912 /sec)
          order  9    : 25             (805 /sec)
          order 10    : 98             (255 /sec)
          order 11    : 395            (75 /sec)
          order 12    : 2138           (68 /sec)
          order 13    : 5083           (60 /sec)
          order 14    : 2958           (53 /sec)
          order 15    : 273            (42 /sec)
          order 16    : 82             (31 /sec)
          order 17    : 44             (29 /sec)
          order 18    : 40             (28 /sec)
          order 19    : 20             (40 /sec)
          order 20    : 19             (40 /sec)
          order 21    : 0              (-nan /sec)
Noncanonical subgraphs: 30909          (2577 /sec)
          order  3    : 0              (-nan /sec)
          order  4    : 0              (-nan /sec)
          order  5    : 0              (-nan /sec)
          order  6    : 0              (-nan /sec)
          order  7    : 0              (-nan /sec)
          order  8    : 0              (-nan /sec)
          order  9    : 0              (-nan /sec)
          order 10    : 0              (-nan /sec)
          order 11    : 0              (-nan /sec)
          order 12    : 0              (-nan /sec)
          order 13    : 21819          (4749 /sec)
          order 14    : 8250           (1928 /sec)
          order 15    : 806            (318 /sec)
          order 16    : 12             (272 /sec)
          order 17    : 1              (18519 /sec)
          order 18    : 0              (-nan /sec)
          order 19    : 0              (-nan /sec)
          order 20    : 0              (-nan /sec)
Canonicity checking   : 190.197 s
Noncanonicity checking: 11.9924 s
Total canonicity time : 202.19 s
database reductions   : 67
restarts              : 2898
conflicts             : 1485278        (2132 /sec)
decisions             : 1885082        (0.00 % random) (2706 /sec)
propagations          : 90807194       (130344 /sec)
conflict literals     : 142538169      (55.24 % deleted)
actual reward         : 0.205738
Memory used           : 236.00 MB
CPU time              : 696.676 s

UNSATISFIABLE
